1	1	1	0	2	40	3	9	4	97	5	34	6	18	7	55	8	106	9	95
2	2	1	75	2	0	3	37	4	23	5	82	6	33	7	71	8	63	9	49
3	3	1	83	2	43	3	0	4	34	5	65	6	49	7	61	8	54	9	51
4	4	1	18	2	62	3	33	4	0	5	86	6	2	7	66	8	13	9	80
5	5	1	26	2	80	3	62	4	86	5	0	6	87	7	67	8	49	9	51
6	6	1	23	2	90	3	105	4	37	5	38	6	0	7	96	8	106	9	96
7	7	1	53	2	98	3	38	4	51	5	81	6	38	7	0	8	41	9	24
8	8	1	15	2	11	3	46	4	83	5	63	6	18	7	27	8	0	9	66
9	9	1	39	2	34	3	77	4	99	5	76	6	9	7	50	8	74	9	0